(set-logic QF_S)
(declare-fun var0 () String)
(declare-fun var1 () String)
(declare-fun var2 () String)
(declare-fun var3 () String)
(declare-fun var4 () String)
(declare-fun var5 () String)
(declare-fun var6 () String)
(declare-fun var7 () String)
(declare-fun var8 () String)
(declare-fun var9 () String)
(declare-fun var10 () String)
(declare-fun var11 () String)
(declare-fun var12 () String)
(declare-fun var13 () String)
(declare-fun var14 () String)
(declare-fun var15 () String)
(declare-fun var16 () String)
(declare-fun var17 () String)
(declare-fun var18 () String)
(declare-fun var19 () String)
(declare-fun var20 () String)
(declare-fun var21 () String)
(declare-fun var22 () String)
(declare-fun var23 () String)
(declare-fun var24 () String)
(declare-fun var25 () String)
(declare-fun var26 () String)
(declare-fun var27 () String)
(declare-fun var28 () String)
(declare-fun var29 () String)
(declare-fun var30 () String)
(declare-fun var31 () String)
(declare-fun var32 () String)
(declare-fun var33 () String)
(declare-fun var34 () String)
(declare-fun var35 () String)
(declare-fun var36 () String)
(declare-fun var37 () String)
(declare-fun var38 () String)
(declare-fun var39 () String)
(declare-fun var40 () String)
(declare-fun var41 () String)
(declare-fun var42 () String)
(declare-fun var43 () String)
(declare-fun var44 () String)
(declare-fun var45 () String)
(declare-fun var46 () String)
(declare-fun var47 () String)
(declare-fun var48 () String)
(declare-fun var49 () String)
(declare-fun var50 () String)
(declare-fun var51 () String)
(declare-fun var52 () String)
(declare-fun var53 () String)
(declare-fun var54 () String)
(declare-fun var55 () String)
(declare-fun var56 () String)
(declare-fun var57 () String)
(declare-fun var58 () String)
(declare-fun var59 () String)
(declare-fun var60 () String)
(declare-fun var61 () String)
(declare-fun var62 () String)
(declare-fun var63 () String)
(declare-fun var64 () String)
(declare-fun var65 () String)
(declare-fun var66 () String)
(declare-fun var67 () String)
(declare-fun var68 () String)
(declare-fun var69 () String)
(declare-fun var70 () String)
(declare-fun var71 () String)
(declare-fun var72 () String)
(declare-fun var73 () String)
(declare-fun var74 () String)
(declare-fun var75 () String)
(declare-fun var76 () String)
(declare-fun var77 () String)
(declare-fun var78 () String)
(declare-fun var79 () String)
(declare-fun var80 () String)
(declare-fun var81 () String)
(declare-fun var82 () String)
(declare-fun var83 () String)
(declare-fun var84 () String)
(declare-fun var85 () String)
(declare-fun var86 () String)
(declare-fun var87 () String)
(declare-fun var88 () String)
(declare-fun var89 () String)
(declare-fun var90 () String)
(declare-fun var91 () String)
(declare-fun var92 () String)
(declare-fun var93 () String)
(declare-fun var94 () String)
(declare-fun var95 () String)
(declare-fun var96 () String)
(declare-fun var97 () String)
(declare-fun var98 () String)
(declare-fun var99 () String)
(assert (= 68 (str.len var0)))
(assert (= 94 (str.len var1)))
(assert (= 18 (str.len var2)))
(assert (= 72 (str.len var3)))
(assert (= 12 (str.len var4)))
(assert (= 94 (str.len var5)))
(assert (= 99 (str.len var6)))
(assert (= 36 (str.len var7)))
(assert (= 57 (str.len var8)))
(assert (= 79 (str.len var9)))
(assert (= 14 (str.len var10)))
(assert (= 17 (str.len var11)))
(assert (= 100 (str.len var12)))
(assert (= 38 (str.len var13)))
(assert (= 68 (str.len var14)))
(assert (= 31 (str.len var15)))
(assert (= 83 (str.len var16)))
(assert (= 64 (str.len var17)))
(assert (= 43 (str.len var18)))
(assert (= 98 (str.len var19)))
(assert (= 86 (str.len var20)))
(assert (= 52 (str.len var21)))
(assert (= 73 (str.len var22)))
(assert (= 42 (str.len var23)))
(assert (= 98 (str.len var24)))
(assert (= 8 (str.len var25)))
(assert (= 46 (str.len var26)))
(assert (= 63 (str.len var27)))
(assert (= 1 (str.len var28)))
(assert (= 14 (str.len var29)))
(assert (= 18 (str.len var30)))
(assert (= 17 (str.len var31)))
(assert (= 85 (str.len var32)))
(assert (= 32 (str.len var33)))
(assert (= 35 (str.len var34)))
(assert (= 16 (str.len var35)))
(assert (= 30 (str.len var36)))
(assert (= 20 (str.len var37)))
(assert (= 44 (str.len var38)))
(assert (= 43 (str.len var39)))
(assert (= 87 (str.len var40)))
(assert (= 64 (str.len var41)))
(assert (= 28 (str.len var42)))
(assert (= 96 (str.len var43)))
(assert (= 30 (str.len var44)))
(assert (= 75 (str.len var45)))
(assert (= 5 (str.len var46)))
(assert (= 65 (str.len var47)))
(assert (= 85 (str.len var48)))
(assert (= 24 (str.len var49)))
(assert (= 69 (str.len var50)))
(assert (= 62 (str.len var51)))
(assert (= 47 (str.len var52)))
(assert (= 22 (str.len var53)))
(assert (= 50 (str.len var54)))
(assert (= 60 (str.len var55)))
(assert (= 63 (str.len var56)))
(assert (= 26 (str.len var57)))
(assert (= 57 (str.len var58)))
(assert (= 69 (str.len var59)))
(assert (= 49 (str.len var60)))
(assert (= 89 (str.len var61)))
(assert (= 38 (str.len var62)))
(assert (= 29 (str.len var63)))
(assert (= 15 (str.len var64)))
(assert (= 66 (str.len var65)))
(assert (= 93 (str.len var66)))
(assert (= 59 (str.len var67)))
(assert (= 53 (str.len var68)))
(assert (= 79 (str.len var69)))
(assert (= 93 (str.len var70)))
(assert (= 34 (str.len var71)))
(assert (= 40 (str.len var72)))
(assert (= 11 (str.len var73)))
(assert (= 12 (str.len var74)))
(assert (= 98 (str.len var75)))
(assert (= 19 (str.len var76)))
(assert (= 82 (str.len var77)))
(assert (= 28 (str.len var78)))
(assert (= 63 (str.len var79)))
(assert (= 68 (str.len var80)))
(assert (= 23 (str.len var81)))
(assert (= 7 (str.len var82)))
(assert (= 58 (str.len var83)))
(assert (= 23 (str.len var84)))
(assert (= 67 (str.len var85)))
(assert (= 95 (str.len var86)))
(assert (= 61 (str.len var87)))
(assert (= 16 (str.len var88)))
(assert (= 3 (str.len var89)))
(assert (= 30 (str.len var90)))
(assert (= 23 (str.len var91)))
(assert (= 25 (str.len var92)))
(assert (= 76 (str.len var93)))
(assert (= 4 (str.len var94)))
(assert (= 43 (str.len var95)))
(assert (= 44 (str.len var96)))
(assert (= 99 (str.len var97)))
(assert (= 61 (str.len var98)))
(assert (= 39 (str.len var99)))
(assert (= 68 (str.len (str.++ var42 var72))))
(assert (= 103 (str.len (str.++ var99 var41))))
(assert (= 58 (str.len (str.++ var10 var38))))
(assert (= 85 (str.len (str.++ var81 var51))))
(assert (= 95 (str.len (str.++ var9 var88))))
(assert (= 101 (str.len (str.++ var62 var79))))
(assert (= 163 (str.len (str.++ var93 var40))))
(assert (= 128 (str.len (str.++ var75 var44))))
(assert (= 160 (str.len (str.++ var55 var12))))
(assert (= 49 (str.len (str.++ var15 var2))))
(check-sat)